p edge 250 3190
e 1 4
e 1 11
e 1 23
e 1 25
e 1 43
e 1 56
e 1 57
e 1 64
e 1 65
e 1 73
e 1 92
e 1 93
e 1 96
e 1 109
e 1 116
e 1 119
e 1 138
e 1 157
e 1 158
e 1 161
e 1 164
e 1 173
e 1 184
e 1 201
e 1 219
e 1 237
e 2 9
e 2 22
e 2 32
e 2 34
e 2 37
e 2 45
e 2 46
e 2 49
e 2 51
e 2 59
e 2 69
e 2 74
e 2 75
e 2 86
e 2 91
e 2 108
e 2 116
e 2 122
e 2 137
e 2 138
e 2 180
e 2 181
e 2 182
e 2 183
e 2 190
e 2 194
e 2 206
e 2 207
e 2 214
e 2 232
e 2 236
e 3 13
e 3 28
e 3 58
e 3 63
e 3 69
e 3 77
e 3 79
e 3 122
e 3 134
e 3 156
e 3 161
e 3 163
e 3 169
e 3 204
e 3 211
e 3 223
e 3 247
e 3 248
e 4 17
e 4 22
e 4 30
e 4 56
e 4 66
e 4 83
e 4 95
e 4 98
e 4 106
e 4 110
e 4 113
e 4 118
e 4 134
e 4 138
e 4 147
e 4 148
e 4 155
e 4 157
e 4 158
e 4 165
e 4 169
e 4 181
e 4 185
e 4 186
e 4 195
e 4 203
e 4 208
e 4 227
e 4 233
e 5 12
e 5 25
e 5 31
e 5 36
e 5 37
e 5 49
e 5 59
e 5 65
e 5 83
e 5 89
e 5 110
e 5 122
e 5 143
e 5 152
e 5 158
e 5 159
e 5 174
e 5 191
e 5 193
e 5 217
e 5 223
e 5 224
e 5 245
e 6 27
e 6 34
e 6 47
e 6 54
e 6 58
e 6 60
e 6 63
e 6 68
e 6 71
e 6 72
e 6 86
e 6 92
e 6 103
e 6 116
e 6 119
e 6 122
e 6 128
e 6 153
e 6 154
e 6 158
e 6 161
e 6 192
e 6 202
e 6 203
e 6 212
e 6 222
e 6 234
e 6 246
e 6 249
e 7 29
e 7 32
e 7 71
e 7 76
e 7 78
e 7 79
e 7 82
e 7 89
e 7 103
e 7 115
e 7 121
e 7 131
e 7 134
e 7 135
e 7 142
e 7 143
e 7 178
e 7 190
e 7 197
e 7 204
e 7 208
e 7 209
e 7 236
e 7 237
e 7 238
e 7 249
e 8 17
e 8 27
e 8 30
e 8 45
e 8 66
e 8 93
e 8 124
e 8 128
e 8 139
e 8 159
e 8 176
e 8 190
e 8 207
e 8 210
e 8 218
e 8 221
e 8 231
e 8 249
e 9 20
e 9 29
e 9 33
e 9 35
e 9 41
e 9 45
e 9 52
e 9 59
e 9 67
e 9 75
e 9 77
e 9 103
e 9 119
e 9 123
e 9 145
e 9 149
e 9 158
e 9 161
e 9 163
e 9 190
e 9 191
e 9 208
e 9 214
e 9 231
e 9 241
e 9 242
e 9 245
e 10 23
e 10 28
e 10 33
e 10 36
e 10 49
e 10 64
e 10 89
e 10 106
e 10 113
e 10 132
e 10 133
e 10 151
e 10 167
e 10 172
e 10 203
e 10 223
e 10 226
e 10 228
e 10 229
e 10 234
e 10 240
e 10 250
e 11 21
e 11 23
e 11 29
e 11 47
e 11 83
e 11 94
e 11 109
e 11 119
e 11 133
e 11 143
e 11 145
e 11 162
e 11 181
e 11 206
e 11 207
e 11 210
e 11 212
e 12 38
e 12 47
e 12 62
e 12 67
e 12 74
e 12 90
e 12 93
e 12 153
e 12 164
e 12 170
e 12 172
e 12 181
e 12 192
e 12 198
e 12 206
e 12 211
e 12 214
e 12 215
e 12 226
e 13 15
e 13 20
e 13 32
e 13 39
e 13 53
e 13 77
e 13 80
e 13 88
e 13 103
e 13 112
e 13 131
e 13 139
e 13 157
e 13 162
e 13 170
e 13 172
e 13 178
e 13 179
e 13 192
e 13 195
e 13 198
e 13 209
e 13 211
e 13 212
e 13 213
e 13 219
e 13 223
e 13 239
e 14 17
e 14 18
e 14 27
e 14 28
e 14 31
e 14 36
e 14 39
e 14 50
e 14 54
e 14 60
e 14 61
e 14 66
e 14 71
e 14 72
e 14 75
e 14 87
e 14 92
e 14 94
e 14 100
e 14 123
e 14 126
e 14 156
e 14 160
e 14 195
e 14 208
e 14 210
e 14 219
e 14 224
e 14 236
e 14 242
e 14 243
e 15 22
e 15 44
e 15 49
e 15 57
e 15 58
e 15 66
e 15 76
e 15 105
e 15 107
e 15 113
e 15 121
e 15 126
e 15 128
e 15 139
e 15 162
e 15 171
e 15 188
e 15 191
e 15 196
e 15 203
e 15 205
e 15 216
e 15 219
e 15 241
e 15 245
e 16 18
e 16 19
e 16 21
e 16 25
e 16 40
e 16 44
e 16 67
e 16 88
e 16 98
e 16 105
e 16 107
e 16 115
e 16 119
e 16 131
e 16 135
e 16 144
e 16 153
e 16 156
e 16 173
e 16 174
e 16 176
e 16 180
e 16 182
e 16 184
e 16 192
e 16 196
e 16 209
e 16 213
e 16 217
e 16 220
e 16 244
e 16 246
e 17 27
e 17 29
e 17 43
e 17 61
e 17 72
e 17 80
e 17 87
e 17 104
e 17 105
e 17 126
e 17 131
e 17 148
e 17 150
e 17 151
e 17 152
e 17 156
e 17 186
e 17 189
e 17 196
e 17 203
e 17 204
e 17 208
e 17 224
e 17 225
e 17 234
e 18 28
e 18 33
e 18 34
e 18 40
e 18 51
e 18 67
e 18 68
e 18 81
e 18 82
e 18 113
e 18 135
e 18 138
e 18 145
e 18 157
e 18 197
e 18 214
e 18 219
e 18 221
e 18 225
e 18 235
e 18 249
e 19 26
e 19 30
e 19 35
e 19 50
e 19 54
e 19 58
e 19 62
e 19 74
e 19 77
e 19 87
e 19 95
e 19 101
e 19 115
e 19 145
e 19 146
e 19 149
e 19 158
e 19 160
e 19 162
e 19 170
e 19 179
e 19 180
e 19 198
e 19 207
e 19 222
e 19 228
e 19 234
e 19 245
e 20 31
e 20 70
e 20 75
e 20 76
e 20 80
e 20 122
e 20 128
e 20 134
e 20 165
e 20 167
e 20 176
e 20 198
e 20 226
e 20 230
e 20 233
e 20 238
e 20 243
e 20 244
e 20 250
e 21 26
e 21 32
e 21 37
e 21 40
e 21 59
e 21 62
e 21 65
e 21 72
e 21 88
e 21 103
e 21 105
e 21 107
e 21 127
e 21 132
e 21 137
e 21 139
e 21 145
e 21 164
e 21 167
e 21 181
e 21 183
e 21 184
e 21 187
e 21 207
e 21 209
e 21 247
e 22 25
e 22 30
e 22 41
e 22 43
e 22 45
e 22 48
e 22 64
e 22 81
e 22 92
e 22 93
e 22 95
e 22 106
e 22 110
e 22 134
e 22 138
e 22 150
e 22 177
e 22 187
e 22 201
e 22 204
e 22 206
e 22 211
e 22 237
e 23 31
e 23 41
e 23 61
e 23 79
e 23 85
e 23 92
e 23 107
e 23 109
e 23 115
e 23 120
e 23 134
e 23 135
e 23 137
e 23 153
e 23 158
e 23 165
e 23 169
e 23 170
e 23 199
e 23 201
e 23 207
e 23 212
e 23 217
e 23 244
e 24 39
e 24 55
e 24 93
e 24 103
e 24 112
e 24 117
e 24 124
e 24 142
e 24 174
e 24 195
e 24 197
e 24 206
e 24 208
e 24 212
e 24 234
e 25 34
e 25 35
e 25 36
e 25 54
e 25 59
e 25 62
e 25 78
e 25 83
e 25 91
e 25 99
e 25 105
e 25 107
e 25 116
e 25 121
e 25 122
e 25 124
e 25 129
e 25 147
e 25 157
e 25 166
e 25 168
e 25 174
e 25 194
e 25 207
e 25 215
e 25 216
e 25 220
e 25 222
e 25 238
e 25 247
e 26 38
e 26 40
e 26 44
e 26 49
e 26 55
e 26 74
e 26 88
e 26 98
e 26 108
e 26 139
e 26 142
e 26 144
e 26 156
e 26 164
e 26 169
e 26 183
e 26 185
e 26 197
e 26 206
e 26 222
e 26 223
e 26 229
e 26 242
e 27 37
e 27 45
e 27 69
e 27 84
e 27 87
e 27 92
e 27 100
e 27 102
e 27 106
e 27 121
e 27 125
e 27 127
e 27 141
e 27 163
e 27 166
e 27 206
e 27 221
e 27 226
e 27 228
e 27 232
e 27 233
e 27 242
e 28 29
e 28 33
e 28 34
e 28 53
e 28 77
e 28 132
e 28 137
e 28 155
e 28 156
e 28 159
e 28 160
e 28 169
e 28 178
e 28 195
e 28 199
e 28 213
e 28 223
e 28 230
e 28 242
e 29 32
e 29 35
e 29 50
e 29 62
e 29 86
e 29 92
e 29 99
e 29 132
e 29 141
e 29 143
e 29 146
e 29 161
e 29 177
e 29 185
e 29 189
e 29 196
e 29 223
e 29 224
e 29 228
e 29 229
e 29 230
e 29 242
e 29 246
e 29 247
e 30 39
e 30 40
e 30 45
e 30 55
e 30 59
e 30 60
e 30 61
e 30 65
e 30 96
e 30 101
e 30 103
e 30 115
e 30 117
e 30 123
e 30 131
e 30 194
e 30 202
e 30 204
e 30 208
e 30 209
e 30 221
e 30 222
e 30 230
e 30 238
e 30 241
e 30 242
e 30 243
e 30 247
e 31 36
e 31 41
e 31 43
e 31 50
e 31 54
e 31 56
e 31 72
e 31 77
e 31 78
e 31 91
e 31 92
e 31 101
e 31 106
e 31 117
e 31 139
e 31 141
e 31 143
e 31 147
e 31 161
e 31 169
e 31 171
e 31 172
e 31 173
e 31 185
e 31 199
e 31 216
e 32 33
e 32 37
e 32 63
e 32 72
e 32 76
e 32 86
e 32 101
e 32 104
e 32 126
e 32 132
e 32 137
e 32 143
e 32 150
e 32 155
e 32 156
e 32 157
e 32 181
e 32 189
e 32 198
e 32 207
e 32 214
e 32 219
e 32 244
e 33 34
e 33 39
e 33 40
e 33 45
e 33 92
e 33 93
e 33 116
e 33 120
e 33 134
e 33 148
e 33 152
e 33 156
e 33 158
e 33 168
e 33 170
e 33 171
e 33 174
e 33 178
e 33 186
e 33 209
e 33 236
e 33 246
e 34 51
e 34 57
e 34 62
e 34 63
e 34 82
e 34 84
e 34 104
e 34 110
e 34 113
e 34 123
e 34 129
e 34 133
e 34 140
e 34 147
e 34 148
e 34 168
e 34 183
e 34 229
e 34 233
e 34 234
e 34 245
e 35 41
e 35 60
e 35 74
e 35 115
e 35 118
e 35 127
e 35 161
e 35 165
e 35 184
e 35 185
e 35 188
e 35 189
e 35 196
e 35 198
e 35 218
e 35 222
e 35 229
e 35 234
e 35 236
e 35 243
e 35 246
e 36 41
e 36 46
e 36 61
e 36 62
e 36 81
e 36 104
e 36 111
e 36 117
e 36 118
e 36 131
e 36 133
e 36 151
e 36 166
e 36 178
e 36 180
e 36 189
e 36 200
e 36 202
e 36 231
e 36 245
e 36 246
e 36 250
e 37 48
e 37 58
e 37 75
e 37 78
e 37 79
e 37 82
e 37 85
e 37 87
e 37 89
e 37 94
e 37 101
e 37 172
e 37 194
e 37 203
e 37 231
e 37 234
e 37 240
e 38 49
e 38 62
e 38 69
e 38 79
e 38 127
e 38 133
e 38 146
e 38 160
e 38 170
e 38 205
e 38 209
e 38 213
e 38 230
e 38 231
e 39 70
e 39 72
e 39 76
e 39 105
e 39 110
e 39 125
e 39 131
e 39 151
e 39 163
e 39 166
e 39 172
e 39 185
e 39 189
e 39 195
e 39 196
e 39 216
e 39 221
e 39 223
e 39 225
e 39 239
e 39 246
e 39 247
e 39 249
e 40 53
e 40 69
e 40 70
e 40 75
e 40 76
e 40 85
e 40 91
e 40 119
e 40 123
e 40 137
e 40 141
e 40 142
e 40 159
e 40 176
e 40 218
e 40 221
e 40 223
e 40 227
e 40 250
e 41 61
e 41 74
e 41 95
e 41 100
e 41 113
e 41 124
e 41 128
e 41 135
e 41 139
e 41 145
e 41 153
e 41 162
e 41 168
e 41 175
e 41 178
e 41 196
e 41 211
e 41 222
e 41 224
e 41 232
e 41 235
e 41 243
e 41 246
e 42 57
e 42 69
e 42 91
e 42 96
e 42 112
e 42 126
e 42 136
e 42 137
e 42 145
e 42 170
e 42 187
e 42 206
e 42 211
e 42 226
e 42 227
e 42 230
e 42 243
e 43 46
e 43 53
e 43 80
e 43 83
e 43 89
e 43 111
e 43 115
e 43 132
e 43 134
e 43 137
e 43 142
e 43 160
e 43 162
e 43 186
e 43 191
e 43 199
e 43 200
e 43 204
e 43 207
e 43 209
e 43 210
e 43 215
e 43 245
e 43 248
e 44 45
e 44 56
e 44 116
e 44 118
e 44 123
e 44 129
e 44 139
e 44 147
e 44 149
e 44 158
e 44 169
e 44 173
e 44 181
e 44 187
e 44 196
e 44 213
e 44 227
e 44 234
e 44 247
e 45 49
e 45 56
e 45 74
e 45 94
e 45 96
e 45 120
e 45 132
e 45 139
e 45 146
e 45 158
e 45 178
e 45 181
e 45 184
e 45 186
e 45 188
e 45 226
e 45 228
e 45 234
e 45 235
e 45 236
e 45 246
e 46 51
e 46 53
e 46 71
e 46 76
e 46 84
e 46 91
e 46 105
e 46 106
e 46 116
e 46 122
e 46 132
e 46 161
e 46 163
e 46 177
e 46 178
e 46 183
e 46 189
e 46 193
e 46 206
e 46 228
e 46 229
e 46 250
e 47 51
e 47 54
e 47 59
e 47 79
e 47 94
e 47 104
e 47 115
e 47 123
e 47 128
e 47 136
e 47 141
e 47 150
e 47 158
e 47 162
e 47 165
e 47 173
e 47 182
e 47 190
e 47 201
e 47 207
e 47 217
e 47 219
e 47 223
e 47 224
e 47 228
e 47 229
e 48 52
e 48 63
e 48 75
e 48 90
e 48 116
e 48 151
e 48 154
e 48 166
e 48 174
e 48 175
e 48 181
e 48 204
e 48 215
e 48 216
e 48 217
e 48 223
e 48 237
e 48 238
e 48 240
e 48 250
e 49 51
e 49 63
e 49 65
e 49 70
e 49 73
e 49 92
e 49 96
e 49 97
e 49 111
e 49 120
e 49 121
e 49 122
e 49 137
e 49 145
e 49 153
e 49 157
e 49 173
e 49 185
e 49 189
e 49 190
e 49 198
e 49 205
e 49 213
e 49 215
e 49 239
e 49 244
e 49 245
e 49 247
e 50 54
e 50 65
e 50 71
e 50 86
e 50 88
e 50 97
e 50 128
e 50 131
e 50 132
e 50 152
e 50 153
e 50 160
e 50 172
e 50 184
e 50 188
e 50 201
e 50 213
e 50 228
e 50 235
e 50 242
e 50 249
e 50 250
e 51 69
e 51 82
e 51 85
e 51 112
e 51 115
e 51 116
e 51 122
e 51 132
e 51 138
e 51 142
e 51 154
e 51 166
e 51 186
e 51 192
e 51 215
e 51 222
e 51 226
e 51 242
e 51 250
e 52 68
e 52 93
e 52 96
e 52 113
e 52 160
e 52 166
e 52 167
e 52 170
e 52 182
e 52 183
e 52 187
e 52 189
e 52 198
e 52 203
e 52 212
e 52 216
e 52 225
e 52 230
e 52 247
e 53 62
e 53 75
e 53 80
e 53 90
e 53 92
e 53 104
e 53 125
e 53 130
e 53 131
e 53 133
e 53 145
e 53 147
e 53 166
e 53 195
e 53 198
e 53 200
e 53 249
e 53 250
e 54 78
e 54 83
e 54 84
e 54 103
e 54 108
e 54 120
e 54 127
e 54 134
e 54 135
e 54 176
e 54 178
e 54 208
e 54 220
e 54 225
e 54 226
e 54 229
e 54 247
e 54 248
e 55 66
e 55 73
e 55 76
e 55 88
e 55 98
e 55 107
e 55 133
e 55 151
e 55 160
e 55 171
e 55 181
e 55 183
e 55 184
e 55 186
e 55 188
e 55 206
e 55 209
e 55 214
e 55 215
e 55 231
e 55 233
e 55 234
e 56 68
e 56 90
e 56 130
e 56 133
e 56 136
e 56 152
e 56 157
e 56 160
e 56 170
e 56 176
e 56 182
e 56 193
e 56 195
e 56 198
e 56 248
e 57 73
e 57 75
e 57 77
e 57 83
e 57 93
e 57 94
e 57 106
e 57 125
e 57 130
e 57 137
e 57 138
e 57 142
e 57 143
e 57 149
e 57 177
e 57 191
e 57 192
e 57 194
e 57 201
e 57 210
e 57 239
e 57 241
e 57 250
e 58 71
e 58 99
e 58 101
e 58 104
e 58 116
e 58 123
e 58 135
e 58 143
e 58 152
e 58 155
e 58 159
e 58 162
e 58 206
e 58 212
e 58 213
e 58 226
e 58 246
e 59 76
e 59 81
e 59 87
e 59 116
e 59 128
e 59 140
e 59 148
e 59 149
e 59 153
e 59 157
e 59 198
e 59 201
e 59 219
e 60 63
e 60 76
e 60 90
e 60 96
e 60 102
e 60 112
e 60 113
e 60 121
e 60 133
e 60 154
e 60 157
e 60 185
e 60 202
e 60 206
e 60 230
e 60 242
e 61 70
e 61 83
e 61 94
e 61 108
e 61 120
e 61 127
e 61 133
e 61 134
e 61 136
e 61 142
e 61 150
e 61 158
e 61 161
e 61 185
e 61 188
e 61 190
e 61 210
e 61 217
e 61 218
e 61 224
e 61 230
e 62 90
e 62 104
e 62 112
e 62 121
e 62 122
e 62 126
e 62 144
e 62 158
e 62 166
e 62 175
e 62 180
e 62 181
e 62 183
e 62 188
e 62 194
e 62 201
e 62 208
e 62 226
e 62 242
e 63 69
e 63 89
e 63 98
e 63 117
e 63 119
e 63 120
e 63 152
e 63 157
e 63 170
e 63 179
e 63 212
e 63 226
e 63 229
e 63 240
e 63 241
e 63 248
e 64 69
e 64 94
e 64 104
e 64 120
e 64 128
e 64 138
e 64 142
e 64 145
e 64 148
e 64 149
e 64 155
e 64 156
e 64 159
e 64 162
e 64 175
e 64 180
e 64 181
e 64 183
e 64 184
e 64 195
e 64 210
e 64 211
e 64 212
e 64 222
e 64 225
e 64 237
e 65 70
e 65 84
e 65 94
e 65 109
e 65 137
e 65 141
e 65 147
e 65 157
e 65 165
e 65 168
e 65 172
e 65 186
e 65 192
e 65 195
e 65 207
e 65 229
e 65 238
e 65 240
e 65 246
e 66 74
e 66 98
e 66 110
e 66 118
e 66 122
e 66 136
e 66 142
e 66 150
e 66 153
e 66 154
e 66 165
e 66 166
e 66 173
e 66 177
e 66 178
e 66 181
e 66 192
e 66 203
e 66 206
e 66 212
e 66 215
e 66 216
e 66 217
e 66 227
e 66 240
e 66 241
e 66 242
e 67 78
e 67 82
e 67 83
e 67 88
e 67 89
e 67 91
e 67 95
e 67 96
e 67 111
e 67 152
e 67 172
e 67 188
e 67 197
e 67 198
e 67 203
e 67 220
e 67 227
e 67 243
e 68 80
e 68 89
e 68 94
e 68 97
e 68 109
e 68 116
e 68 124
e 68 129
e 68 141
e 68 146
e 68 162
e 68 174
e 68 181
e 68 184
e 68 194
e 68 196
e 68 198
e 68 226
e 68 236
e 69 81
e 69 94
e 69 98
e 69 104
e 69 108
e 69 109
e 69 110
e 69 124
e 69 134
e 69 148
e 69 151
e 69 152
e 69 159
e 69 180
e 69 195
e 69 201
e 69 213
e 69 221
e 69 224
e 69 236
e 69 240
e 69 246
e 69 248
e 70 74
e 70 90
e 70 101
e 70 102
e 70 117
e 70 121
e 70 134
e 70 136
e 70 141
e 70 144
e 70 148
e 70 164
e 70 174
e 70 175
e 70 180
e 70 184
e 70 191
e 70 204
e 70 210
e 70 217
e 70 224
e 70 232
e 70 243
e 70 244
e 71 73
e 71 91
e 71 103
e 71 105
e 71 122
e 71 131
e 71 141
e 71 157
e 71 163
e 71 165
e 71 175
e 71 179
e 71 182
e 71 186
e 71 187
e 71 193
e 71 200
e 71 208
e 71 219
e 71 234
e 71 250
e 72 74
e 72 92
e 72 106
e 72 112
e 72 114
e 72 123
e 72 124
e 72 127
e 72 159
e 72 168
e 72 169
e 72 181
e 72 193
e 72 214
e 72 225
e 72 237
e 72 239
e 73 76
e 73 77
e 73 92
e 73 99
e 73 103
e 73 120
e 73 134
e 73 135
e 73 136
e 73 159
e 73 204
e 73 207
e 73 216
e 73 218
e 73 243
e 74 83
e 74 84
e 74 87
e 74 104
e 74 114
e 74 115
e 74 124
e 74 133
e 74 144
e 74 150
e 74 158
e 74 159
e 74 165
e 74 169
e 74 173
e 74 188
e 74 202
e 74 204
e 74 210
e 74 240
e 74 244
e 74 246
e 75 81
e 75 83
e 75 88
e 75 89
e 75 96
e 75 98
e 75 106
e 75 108
e 75 112
e 75 123
e 75 146
e 75 149
e 75 151
e 75 162
e 75 172
e 75 191
e 75 200
e 75 204
e 75 217
e 75 224
e 75 225
e 75 226
e 75 227
e 75 232
e 75 236
e 75 241
e 75 245
e 76 89
e 76 111
e 76 117
e 76 127
e 76 144
e 76 155
e 76 172
e 76 173
e 76 175
e 76 176
e 76 180
e 76 190
e 76 199
e 76 205
e 76 207
e 76 212
e 76 213
e 76 216
e 76 224
e 76 225
e 76 233
e 76 237
e 77 87
e 77 91
e 77 106
e 77 107
e 77 115
e 77 117
e 77 121
e 77 133
e 77 140
e 77 176
e 77 181
e 77 193
e 77 195
e 77 199
e 77 215
e 77 223
e 77 232
e 77 242
e 78 85
e 78 96
e 78 103
e 78 105
e 78 106
e 78 109
e 78 130
e 78 140
e 78 142
e 78 166
e 78 167
e 78 173
e 78 176
e 78 180
e 78 197
e 78 213
e 78 235
e 78 243
e 78 246
e 79 84
e 79 85
e 79 97
e 79 107
e 79 114
e 79 116
e 79 120
e 79 133
e 79 145
e 79 146
e 79 172
e 79 183
e 79 186
e 79 189
e 79 214
e 79 218
e 79 224
e 79 233
e 79 240
e 79 244
e 79 245
e 80 101
e 80 158
e 80 163
e 80 173
e 80 175
e 80 179
e 80 182
e 80 203
e 80 226
e 81 98
e 81 124
e 81 138
e 81 160
e 81 196
e 81 199
e 81 219
e 81 236
e 81 237
e 81 239
e 81 250
e 82 88
e 82 90
e 82 94
e 82 97
e 82 100
e 82 111
e 82 117
e 82 129
e 82 151
e 82 154
e 82 164
e 82 182
e 82 185
e 82 197
e 82 204
e 82 213
e 82 221
e 82 232
e 82 238
e 82 241
e 83 85
e 83 94
e 83 113
e 83 125
e 83 132
e 83 148
e 83 152
e 83 163
e 83 172
e 83 186
e 83 191
e 83 204
e 83 216
e 83 218
e 83 230
e 83 233
e 83 237
e 83 243
e 83 244
e 84 88
e 84 102
e 84 104
e 84 112
e 84 113
e 84 119
e 84 141
e 84 142
e 84 143
e 84 144
e 84 150
e 84 160
e 84 163
e 84 170
e 84 175
e 84 205
e 84 210
e 84 215
e 84 220
e 84 231
e 84 234
e 84 237
e 84 244
e 85 91
e 85 104
e 85 106
e 85 133
e 85 151
e 85 170
e 85 171
e 85 177
e 85 185
e 85 216
e 85 219
e 85 220
e 85 221
e 85 223
e 86 87
e 86 88
e 86 92
e 86 95
e 86 97
e 86 99
e 86 102
e 86 107
e 86 110
e 86 123
e 86 128
e 86 168
e 86 175
e 86 182
e 86 194
e 86 197
e 86 220
e 86 224
e 86 237
e 86 240
e 86 241
e 86 245
e 86 249
e 87 106
e 87 114
e 87 134
e 87 140
e 87 143
e 87 172
e 87 173
e 87 174
e 87 175
e 87 190
e 87 195
e 87 201
e 87 230
e 87 232
e 87 237
e 87 243
e 87 245
e 87 249
e 88 104
e 88 107
e 88 108
e 88 123
e 88 150
e 88 171
e 88 175
e 88 182
e 88 195
e 88 209
e 88 219
e 88 221
e 88 222
e 88 232
e 88 238
e 88 242
e 88 250
e 89 95
e 89 110
e 89 116
e 89 117
e 89 123
e 89 127
e 89 132
e 89 134
e 89 139
e 89 147
e 89 161
e 89 181
e 89 190
e 89 198
e 89 199
e 89 208
e 89 219
e 89 227
e 90 103
e 90 110
e 90 121
e 90 124
e 90 130
e 90 169
e 90 170
e 90 175
e 90 186
e 90 201
e 90 223
e 90 225
e 90 237
e 90 241
e 90 243
e 91 92
e 91 124
e 91 155
e 91 158
e 91 160
e 91 162
e 91 170
e 91 173
e 91 196
e 91 213
e 91 214
e 91 216
e 91 217
e 91 223
e 91 231
e 91 239
e 91 241
e 91 247
e 92 111
e 92 122
e 92 131
e 92 149
e 92 157
e 92 170
e 92 199
e 92 200
e 92 203
e 92 214
e 92 222
e 92 249
e 93 109
e 93 110
e 93 116
e 93 125
e 93 133
e 93 147
e 93 159
e 93 170
e 93 171
e 93 184
e 93 190
e 93 202
e 93 204
e 93 231
e 93 241
e 93 243
e 93 244
e 94 95
e 94 98
e 94 108
e 94 109
e 94 117
e 94 132
e 94 190
e 94 192
e 94 199
e 94 215
e 94 223
e 94 232
e 94 246
e 94 250
e 95 104
e 95 106
e 95 115
e 95 121
e 95 134
e 95 136
e 95 143
e 95 168
e 95 169
e 95 180
e 95 194
e 95 195
e 95 197
e 95 198
e 96 101
e 96 105
e 96 111
e 96 117
e 96 123
e 96 126
e 96 134
e 96 157
e 96 168
e 96 205
e 96 208
e 96 226
e 96 227
e 96 248
e 97 106
e 97 110
e 97 117
e 97 134
e 97 151
e 97 155
e 97 159
e 97 162
e 97 163
e 97 176
e 97 186
e 97 219
e 97 220
e 97 222
e 97 235
e 98 106
e 98 108
e 98 111
e 98 119
e 98 123
e 98 125
e 98 135
e 98 147
e 98 153
e 98 177
e 98 214
e 98 221
e 99 106
e 99 112
e 99 134
e 99 138
e 99 161
e 99 188
e 99 203
e 99 212
e 99 231
e 99 234
e 99 248
e 100 106
e 100 108
e 100 114
e 100 116
e 100 117
e 100 121
e 100 129
e 100 133
e 100 165
e 100 181
e 100 206
e 100 209
e 100 231
e 100 242
e 101 114
e 101 132
e 101 167
e 101 168
e 101 172
e 101 194
e 101 195
e 101 207
e 101 212
e 101 214
e 101 215
e 101 223
e 101 232
e 101 241
e 102 115
e 102 122
e 102 125
e 102 127
e 102 137
e 102 143
e 102 152
e 102 175
e 102 180
e 102 184
e 102 188
e 102 217
e 102 220
e 102 227
e 102 232
e 102 233
e 102 238
e 103 106
e 103 113
e 103 123
e 103 130
e 103 142
e 103 146
e 103 147
e 103 155
e 103 160
e 103 171
e 103 210
e 103 216
e 103 234
e 104 121
e 104 126
e 104 133
e 104 147
e 104 152
e 104 189
e 104 195
e 104 217
e 104 227
e 104 230
e 104 241
e 104 247
e 104 250
e 105 114
e 105 117
e 105 123
e 105 130
e 105 141
e 105 147
e 105 171
e 105 200
e 105 219
e 105 222
e 105 227
e 105 228
e 105 235
e 105 247
e 106 109
e 106 118
e 106 123
e 106 128
e 106 130
e 106 136
e 106 139
e 106 152
e 106 172
e 106 184
e 106 237
e 106 245
e 107 109
e 107 111
e 107 144
e 107 171
e 107 173
e 107 175
e 107 197
e 107 202
e 107 207
e 107 229
e 107 241
e 107 245
e 107 247
e 107 250
e 108 121
e 108 124
e 108 126
e 108 131
e 108 139
e 108 141
e 108 150
e 108 165
e 108 176
e 108 181
e 108 190
e 108 207
e 108 212
e 108 215
e 108 226
e 108 243
e 109 114
e 109 127
e 109 138
e 109 148
e 109 156
e 109 173
e 109 186
e 109 218
e 109 230
e 109 244
e 110 125
e 110 129
e 110 131
e 110 134
e 110 140
e 110 142
e 110 190
e 110 196
e 110 202
e 110 212
e 110 246
e 111 114
e 111 116
e 111 127
e 111 138
e 111 144
e 111 152
e 111 157
e 111 181
e 111 189
e 111 193
e 111 196
e 111 203
e 111 205
e 111 214
e 111 216
e 111 229
e 111 249
e 112 114
e 112 123
e 112 129
e 112 132
e 112 139
e 112 146
e 112 152
e 112 158
e 112 160
e 112 179
e 112 187
e 112 190
e 112 192
e 112 200
e 112 223
e 112 230
e 113 134
e 113 135
e 113 148
e 113 167
e 113 181
e 113 184
e 113 187
e 113 198
e 113 203
e 113 219
e 113 221
e 113 222
e 113 225
e 113 233
e 113 234
e 114 125
e 114 138
e 114 145
e 114 146
e 114 151
e 114 154
e 114 162
e 114 175
e 114 198
e 114 213
e 114 224
e 114 233
e 114 241
e 114 242
e 115 124
e 115 133
e 115 136
e 115 147
e 115 149
e 115 164
e 115 171
e 115 180
e 115 188
e 115 195
e 115 201
e 115 212
e 115 221
e 115 227
e 115 231
e 115 232
e 115 239
e 116 129
e 116 158
e 116 166
e 116 171
e 116 180
e 116 187
e 116 189
e 116 214
e 116 217
e 116 225
e 116 236
e 116 243
e 117 119
e 117 122
e 117 136
e 117 167
e 117 183
e 117 213
e 117 228
e 117 232
e 118 120
e 118 122
e 118 132
e 118 135
e 118 139
e 118 169
e 118 176
e 118 195
e 118 196
e 118 200
e 118 201
e 118 204
e 118 214
e 118 232
e 118 234
e 118 235
e 119 131
e 119 137
e 119 143
e 119 148
e 119 158
e 119 174
e 119 177
e 119 185
e 119 195
e 119 208
e 119 234
e 120 130
e 120 150
e 120 162
e 120 163
e 120 168
e 120 175
e 120 183
e 120 189
e 120 192
e 120 203
e 120 214
e 120 244
e 121 133
e 121 139
e 121 170
e 121 184
e 121 185
e 121 207
e 121 220
e 121 224
e 121 225
e 121 229
e 121 233
e 121 238
e 121 244
e 121 248
e 122 134
e 122 138
e 122 144
e 122 168
e 122 217
e 122 221
e 122 236
e 122 238
e 122 247
e 123 124
e 123 133
e 123 141
e 123 143
e 123 163
e 123 164
e 123 168
e 123 200
e 123 211
e 123 220
e 123 222
e 123 233
e 124 143
e 124 159
e 124 178
e 124 186
e 124 189
e 124 192
e 124 194
e 124 222
e 124 223
e 124 225
e 124 245
e 125 127
e 125 130
e 125 138
e 125 143
e 125 154
e 125 163
e 125 177
e 125 180
e 125 181
e 125 194
e 125 200
e 125 207
e 125 216
e 125 228
e 125 231
e 125 239
e 126 145
e 126 151
e 126 155
e 126 159
e 126 177
e 126 194
e 126 204
e 126 205
e 126 214
e 126 216
e 126 239
e 127 134
e 127 139
e 127 157
e 127 160
e 127 164
e 127 180
e 127 203
e 127 228
e 128 135
e 128 170
e 128 179
e 128 189
e 128 201
e 128 209
e 128 236
e 128 248
e 129 131
e 129 142
e 129 150
e 129 154
e 129 165
e 129 177
e 129 187
e 129 189
e 129 203
e 129 205
e 129 217
e 129 221
e 129 229
e 129 231
e 129 238
e 129 242
e 130 148
e 130 160
e 130 175
e 130 177
e 130 178
e 130 186
e 130 187
e 130 191
e 130 195
e 130 233
e 130 245
e 131 135
e 131 147
e 131 152
e 131 160
e 131 167
e 131 180
e 131 192
e 131 197
e 131 198
e 131 203
e 131 206
e 131 214
e 131 224
e 131 233
e 131 240
e 131 250
e 132 138
e 132 160
e 132 179
e 132 182
e 132 184
e 132 185
e 132 187
e 132 199
e 132 205
e 132 223
e 132 224
e 132 231
e 132 233
e 132 234
e 132 237
e 133 150
e 133 152
e 133 158
e 133 167
e 133 183
e 133 184
e 133 195
e 133 213
e 133 215
e 133 225
e 133 249
e 134 139
e 134 142
e 134 147
e 134 152
e 134 156
e 134 164
e 134 169
e 134 170
e 134 178
e 134 193
e 134 198
e 134 214
e 134 226
e 134 239
e 134 247
e 135 155
e 135 161
e 135 171
e 135 189
e 135 192
e 135 199
e 135 200
e 135 213
e 135 219
e 135 238
e 135 241
e 135 244
e 135 250
e 136 137
e 136 138
e 136 168
e 136 169
e 136 171
e 136 188
e 136 219
e 136 223
e 136 238
e 137 149
e 137 151
e 137 152
e 137 158
e 137 207
e 137 212
e 137 215
e 137 216
e 137 245
e 137 249
e 138 139
e 138 148
e 138 170
e 138 172
e 138 175
e 138 185
e 138 211
e 138 213
e 138 220
e 138 234
e 138 240
e 138 247
e 139 159
e 139 176
e 139 178
e 139 183
e 139 191
e 139 194
e 139 199
e 139 207
e 139 218
e 139 221
e 139 237
e 140 142
e 140 145
e 140 162
e 140 169
e 140 175
e 140 201
e 140 212
e 140 213
e 140 214
e 140 242
e 141 145
e 141 165
e 141 169
e 141 178
e 141 189
e 141 190
e 141 195
e 141 207
e 141 210
e 141 231
e 142 169
e 142 175
e 142 178
e 142 184
e 142 187
e 142 191
e 142 192
e 142 195
e 142 197
e 142 217
e 142 230
e 142 233
e 142 247
e 143 147
e 143 155
e 143 159
e 143 186
e 143 198
e 143 212
e 143 219
e 143 223
e 143 239
e 143 245
e 144 186
e 144 187
e 144 192
e 144 217
e 144 230
e 145 157
e 145 158
e 145 161
e 145 162
e 145 168
e 145 176
e 145 181
e 145 184
e 145 194
e 145 205
e 145 206
e 145 210
e 145 220
e 145 221
e 145 245
e 146 164
e 146 165
e 146 173
e 146 182
e 146 185
e 146 194
e 146 215
e 146 223
e 146 227
e 146 237
e 147 148
e 147 152
e 147 162
e 147 173
e 147 190
e 147 200
e 147 205
e 147 227
e 147 230
e 147 243
e 147 247
e 148 172
e 148 173
e 148 186
e 148 203
e 148 219
e 148 220
e 148 229
e 148 230
e 148 231
e 148 241
e 148 245
e 149 151
e 149 157
e 149 165
e 149 170
e 149 173
e 149 186
e 149 208
e 149 219
e 149 221
e 149 237
e 149 242
e 149 248
e 150 162
e 150 167
e 150 170
e 150 189
e 150 213
e 150 214
e 150 233
e 150 246
e 150 249
e 150 250
e 151 168
e 151 172
e 151 173
e 151 176
e 151 177
e 151 178
e 151 244
e 152 159
e 152 175
e 152 190
e 152 194
e 152 203
e 152 205
e 152 208
e 152 210
e 152 222
e 152 224
e 152 226
e 152 230
e 152 242
e 153 154
e 153 170
e 153 173
e 153 191
e 153 196
e 153 199
e 153 202
e 153 217
e 153 228
e 153 231
e 153 244
e 154 171
e 154 179
e 154 184
e 154 188
e 154 195
e 154 199
e 154 207
e 154 218
e 154 247
e 155 157
e 155 166
e 155 168
e 155 182
e 155 193
e 155 195
e 155 199
e 155 221
e 155 235
e 155 239
e 155 240
e 155 249
e 156 168
e 156 169
e 156 172
e 156 181
e 156 213
e 156 218
e 156 233
e 156 235
e 156 236
e 156 244
e 156 245
e 156 250
e 157 159
e 157 170
e 157 183
e 157 190
e 157 202
e 157 220
e 157 226
e 157 230
e 157 236
e 158 160
e 158 165
e 158 179
e 158 188
e 158 201
e 158 210
e 158 215
e 158 230
e 159 169
e 159 192
e 159 198
e 159 224
e 159 227
e 159 228
e 159 234
e 159 242
e 159 249
e 160 170
e 160 171
e 160 176
e 160 178
e 160 212
e 160 215
e 160 219
e 160 225
e 160 236
e 160 248
e 161 162
e 161 180
e 161 186
e 161 188
e 161 189
e 161 197
e 161 237
e 161 240
e 161 245
e 161 248
e 162 172
e 162 182
e 162 192
e 162 197
e 162 213
e 162 221
e 162 234
e 162 249
e 163 206
e 163 208
e 163 213
e 163 224
e 163 226
e 163 250
e 164 169
e 164 171
e 164 181
e 164 219
e 164 222
e 164 234
e 164 245
e 164 247
e 165 175
e 165 180
e 165 195
e 165 197
e 165 200
e 165 201
e 165 213
e 165 218
e 165 219
e 165 229
e 165 234
e 165 248
e 166 169
e 166 182
e 166 199
e 166 205
e 166 206
e 166 212
e 166 213
e 166 214
e 166 219
e 166 220
e 166 239
e 166 240
e 167 182
e 167 183
e 167 186
e 167 188
e 167 191
e 167 195
e 167 207
e 167 211
e 167 217
e 167 221
e 167 232
e 167 236
e 167 242
e 167 247
e 168 170
e 168 178
e 168 179
e 168 181
e 168 182
e 168 186
e 168 202
e 168 209
e 168 213
e 168 230
e 169 174
e 169 182
e 169 207
e 169 209
e 169 233
e 169 238
e 169 246
e 170 173
e 170 189
e 170 210
e 170 215
e 170 221
e 170 239
e 170 247
e 170 250
e 171 194
e 171 202
e 171 204
e 171 207
e 171 214
e 171 227
e 171 237
e 171 241
e 172 175
e 172 179
e 172 183
e 172 193
e 172 206
e 172 210
e 172 224
e 172 244
e 173 178
e 173 180
e 173 201
e 173 215
e 173 217
e 173 223
e 173 242
e 174 177
e 174 182
e 174 209
e 174 223
e 175 179
e 175 188
e 175 194
e 175 202
e 175 216
e 175 218
e 175 220
e 175 240
e 175 245
e 175 247
e 175 249
e 176 189
e 176 199
e 176 209
e 176 212
e 176 221
e 176 223
e 176 232
e 176 233
e 176 242
e 176 245
e 177 197
e 177 223
e 177 228
e 177 231
e 177 236
e 177 243
e 178 183
e 178 195
e 178 206
e 178 214
e 178 221
e 178 226
e 178 238
e 178 250
e 179 180
e 179 187
e 179 207
e 179 231
e 179 238
e 180 203
e 180 227
e 180 236
e 180 245
e 180 246
e 181 207
e 181 236
e 182 187
e 182 190
e 182 198
e 182 202
e 182 215
e 182 234
e 183 194
e 183 199
e 183 208
e 183 213
e 183 245
e 184 186
e 184 189
e 184 207
e 184 212
e 184 223
e 184 229
e 184 230
e 184 232
e 184 240
e 184 249
e 185 189
e 185 190
e 185 198
e 185 215
e 185 230
e 185 238
e 186 190
e 186 214
e 186 217
e 186 224
e 186 225
e 186 230
e 186 235
e 186 238
e 186 241
e 187 189
e 187 194
e 187 201
e 187 203
e 187 218
e 187 222
e 187 248
e 188 193
e 188 200
e 188 208
e 188 216
e 188 219
e 188 221
e 188 231
e 189 196
e 189 200
e 189 221
e 189 231
e 189 246
e 189 248
e 190 191
e 190 201
e 190 207
e 190 209
e 190 216
e 190 218
e 190 233
e 190 239
e 190 241
e 190 245
e 191 194
e 191 215
e 191 222
e 191 231
e 191 234
e 191 241
e 191 243
e 191 244
e 192 202
e 192 204
e 192 207
e 192 216
e 192 234
e 192 250
e 193 196
e 193 217
e 193 227
e 193 231
e 193 235
e 194 198
e 194 213
e 194 221
e 194 224
e 194 230
e 194 237
e 194 243
e 194 250
e 195 198
e 195 219
e 195 227
e 195 238
e 195 243
e 196 205
e 196 221
e 196 230
e 196 235
e 196 238
e 197 203
e 197 209
e 197 232
e 197 238
e 198 214
e 198 220
e 198 224
e 198 231
e 198 232
e 198 239
e 199 207
e 199 216
e 199 231
e 199 233
e 199 237
e 199 242
e 199 243
e 199 248
e 200 203
e 200 211
e 200 212
e 200 232
e 200 235
e 201 207
e 201 212
e 201 239
e 201 241
e 202 221
e 202 222
e 202 249
e 203 244
e 205 208
e 205 212
e 205 217
e 205 231
e 205 242
e 205 243
e 206 208
e 206 209
e 206 221
e 206 222
e 206 225
e 206 235
e 206 245
e 206 249
e 207 214
e 207 221
e 207 222
e 207 226
e 207 235
e 207 240
e 207 241
e 207 244
e 207 245
e 208 217
e 208 218
e 208 229
e 208 236
e 208 245
e 208 250
e 209 211
e 209 222
e 209 236
e 209 245
e 210 215
e 210 228
e 210 229
e 210 236
e 211 213
e 211 218
e 211 222
e 211 225
e 211 226
e 211 241
e 212 219
e 212 222
e 212 236
e 212 250
e 213 229
e 213 230
e 213 231
e 213 249
e 214 222
e 214 244
e 215 217
e 215 225
e 215 238
e 215 244
e 216 219
e 216 237
e 216 242
e 217 226
e 217 241
e 218 246
e 219 233
e 219 236
e 219 239
e 220 231
e 220 232
e 220 237
e 221 227
e 221 229
e 221 231
e 221 235
e 221 236
e 221 241
e 222 232
e 222 236
e 222 238
e 222 239
e 222 244
e 222 247
e 223 234
e 224 231
e 224 237
e 225 241
e 226 235
e 226 243
e 228 233
e 228 234
e 228 242
e 229 238
e 230 232
e 230 235
e 231 238
e 231 242
e 231 245
e 231 248
e 233 235
e 233 248
e 234 237
e 234 241
e 234 244
e 235 248
e 238 239
e 238 247
e 240 246
e 240 249
e 242 243
e 243 245
e 243 249
